32      10      
11      12      18      19      19      16      12      18      20      15      
0       0       0       0       0       0       0       0       0       0       0       1       2       
9       11      0       0       0       0       13      0       0       0       0       1       3       
4       11      0       0       0       0       0       7       0       0       0       2       4       8       
5       0       0       0       0       0       0       8       0       0       1       1       5       
6       0       0       0       0       7       0       0       0       0       10      2       6       7       
4       0       3       0       0       0       0       6       0       0       0       2       9       12      
5       8       0       11      0       0       0       0       0       0       0       1       10      
10      0       0       0       0       0       15      5       0       0       0       1       9       
4       7       0       0       0       0       0       8       0       0       0       2       11      13      
3       0       0       0       0       0       16      0       0       0       15      2       11      13      
4       0       0       0       0       12      14      0       0       0       0       3       14      15      17      
7       0       5       0       0       0       0       0       18      0       0       3       14      15      17      
5       0       0       0       0       0       0       0       0       19      9       1       14      
2       0       0       11      0       0       0       0       18      0       0       3       16      18      24      
5       0       0       14      0       0       0       0       0       0       15      2       16      24      
3       0       0       18      0       0       0       0       18      0       0       3       19      20      22      
10      0       0       14      0       13      0       0       0       0       0       3       19      20      23      
5       11      0       0       0       18      0       0       0       0       0       3       20      22      23      
10      0       0       0       0       0       0       0       8       20      0       1       21      
5       0       0       0       19      0       0       0       0       20      0       1       25      
8       0       12      0       0       0       0       0       18      0       0       1       25      
5       0       0       0       9       0       7       0       0       0       0       1       25      
5       0       0       0       14      0       0       0       0       12      0       1       25      
3       0       5       0       0       11      0       0       0       0       0       1       25      
1       0       0       18      19      0       0       0       0       0       0       2       26      27      
1       0       0       0       17      19      0       0       0       0       0       2       28      29      
4       11      0       0       0       0       0       0       0       10      0       1       28      
2       0       0       0       12      0       0       6       0       0       0       2       30      31      
9       0       11      0       0       0       0       0       17      0       0       1       30      
6       0       0       0       0       0       14      0       0       0       8       1       32      
8       0       4       0       0       0       0       0       0       20      0       1       32      
0       0       0       0       0       0       0       0       0       0       0       0       
